c xor clauses: 7
p cnf 20 230
-3 -10 0
-3 -13 0
-3 -20 0
-3 -2 0
-10 -13 0
-10 -20 0
-10 -2 0
-13 -20 0
-13 -2 0
-20 -2 0
-7 -5 0
-7 -17 0
-7 -4 0
-7 -15 0
-5 -17 0
-5 -4 0
-5 -15 0
-17 -4 0
-17 -15 0
-4 -15 0
-11 -12 0
-11 -6 0
-11 -19 0
-11 -1 0
-12 -6 0
-12 -19 0
-12 -1 0
-6 -19 0
-6 -1 0
-19 -1 0
-18 -9 0
-18 -16 0
-18 -14 0
-18 -8 0
-9 -16 0
-9 -14 0
-9 -8 0
-16 -14 0
-16 -8 0
-14 -8 0
11 4 2 14 20 0
3 16 12 15 17 0
18 6 10 8 5 0
7 9 13 1 19 0
18 14 6 13 12 0
7 5 16 2 19 0
11 17 20 10 9 0
3 4 1 8 15 0
11 4 2 -14 -20 0
11 4 -2 14 -20 0
11 4 -2 -14 20 0
11 4 -2 -14 -20 0
11 -4 2 14 -20 0
11 -4 2 -14 20 0
11 -4 2 -14 -20 0
11 -4 -2 14 20 0
11 -4 -2 14 -20 0
11 -4 -2 -14 20 0
11 -4 -2 -14 -20 0
-11 4 2 14 -20 0
-11 4 2 -14 20 0
-11 4 2 -14 -20 0
-11 4 -2 14 20 0
-11 4 -2 14 -20 0
-11 4 -2 -14 20 0
-11 4 -2 -14 -20 0
-11 -4 2 14 20 0
-11 -4 2 14 -20 0
-11 -4 2 -14 20 0
-11 -4 2 -14 -20 0
-11 -4 -2 14 20 0
-11 -4 -2 14 -20 0
-11 -4 -2 -14 20 0
-11 -4 -2 -14 -20 0
3 16 12 -15 -17 0
3 16 -12 15 -17 0
3 16 -12 -15 17 0
3 16 -12 -15 -17 0
3 -16 12 15 -17 0
3 -16 12 -15 17 0
3 -16 12 -15 -17 0
3 -16 -12 15 17 0
3 -16 -12 15 -17 0
3 -16 -12 -15 17 0
3 -16 -12 -15 -17 0
-3 16 12 15 -17 0
-3 16 12 -15 17 0
-3 16 12 -15 -17 0
-3 16 -12 15 17 0
-3 16 -12 15 -17 0
-3 16 -12 -15 17 0
-3 16 -12 -15 -17 0
-3 -16 12 15 17 0
-3 -16 12 15 -17 0
-3 -16 12 -15 17 0
-3 -16 12 -15 -17 0
-3 -16 -12 15 17 0
-3 -16 -12 15 -17 0
-3 -16 -12 -15 17 0
-3 -16 -12 -15 -17 0
18 6 10 -8 -5 0
18 6 -10 8 -5 0
18 6 -10 -8 5 0
18 6 -10 -8 -5 0
18 -6 10 8 -5 0
18 -6 10 -8 5 0
18 -6 10 -8 -5 0
18 -6 -10 8 5 0
18 -6 -10 8 -5 0
18 -6 -10 -8 5 0
18 -6 -10 -8 -5 0
-18 6 10 8 -5 0
-18 6 10 -8 5 0
-18 6 10 -8 -5 0
-18 6 -10 8 5 0
-18 6 -10 8 -5 0
-18 6 -10 -8 5 0
-18 6 -10 -8 -5 0
-18 -6 10 8 5 0
-18 -6 10 8 -5 0
-18 -6 10 -8 5 0
-18 -6 10 -8 -5 0
-18 -6 -10 8 5 0
-18 -6 -10 8 -5 0
-18 -6 -10 -8 5 0
-18 -6 -10 -8 -5 0
7 9 13 -1 -19 0
7 9 -13 1 -19 0
7 9 -13 -1 19 0
7 9 -13 -1 -19 0
7 -9 13 1 -19 0
7 -9 13 -1 19 0
7 -9 13 -1 -19 0
7 -9 -13 1 19 0
7 -9 -13 1 -19 0
7 -9 -13 -1 19 0
7 -9 -13 -1 -19 0
-7 9 13 1 -19 0
-7 9 13 -1 19 0
-7 9 13 -1 -19 0
-7 9 -13 1 19 0
-7 9 -13 1 -19 0
-7 9 -13 -1 19 0
-7 9 -13 -1 -19 0
-7 -9 13 1 19 0
-7 -9 13 1 -19 0
-7 -9 13 -1 19 0
-7 -9 13 -1 -19 0
-7 -9 -13 1 19 0
-7 -9 -13 1 -19 0
-7 -9 -13 -1 19 0
-7 -9 -13 -1 -19 0
18 14 6 -13 -12 0
18 14 -6 13 -12 0
18 14 -6 -13 12 0
18 14 -6 -13 -12 0
18 -14 6 13 -12 0
18 -14 6 -13 12 0
18 -14 6 -13 -12 0
18 -14 -6 13 12 0
18 -14 -6 13 -12 0
18 -14 -6 -13 12 0
18 -14 -6 -13 -12 0
-18 14 6 13 -12 0
-18 14 6 -13 12 0
-18 14 6 -13 -12 0
-18 14 -6 13 12 0
-18 14 -6 13 -12 0
-18 14 -6 -13 12 0
-18 14 -6 -13 -12 0
-18 -14 6 13 12 0
-18 -14 6 13 -12 0
-18 -14 6 -13 12 0
-18 -14 6 -13 -12 0
-18 -14 -6 13 12 0
-18 -14 -6 13 -12 0
-18 -14 -6 -13 12 0
-18 -14 -6 -13 -12 0
7 5 16 -2 -19 0
7 5 -16 2 -19 0
7 5 -16 -2 19 0
7 5 -16 -2 -19 0
7 -5 16 2 -19 0
7 -5 16 -2 19 0
7 -5 16 -2 -19 0
7 -5 -16 2 19 0
7 -5 -16 2 -19 0
7 -5 -16 -2 19 0
7 -5 -16 -2 -19 0
-7 5 16 2 -19 0
-7 5 16 -2 19 0
-7 5 16 -2 -19 0
-7 5 -16 2 19 0
-7 5 -16 2 -19 0
-7 5 -16 -2 19 0
-7 5 -16 -2 -19 0
-7 -5 16 2 19 0
-7 -5 16 2 -19 0
-7 -5 16 -2 19 0
-7 -5 16 -2 -19 0
-7 -5 -16 2 19 0
-7 -5 -16 2 -19 0
-7 -5 -16 -2 19 0
-7 -5 -16 -2 -19 0
11 17 20 -10 -9 0
11 17 -20 10 -9 0
11 17 -20 -10 9 0
11 17 -20 -10 -9 0
11 -17 20 10 -9 0
11 -17 20 -10 9 0
11 -17 20 -10 -9 0
11 -17 -20 10 9 0
11 -17 -20 10 -9 0
11 -17 -20 -10 9 0
11 -17 -20 -10 -9 0
-11 17 20 10 -9 0
-11 17 20 -10 9 0
-11 17 20 -10 -9 0
-11 17 -20 10 9 0
-11 17 -20 10 -9 0
-11 17 -20 -10 9 0
-11 17 -20 -10 -9 0
-11 -17 20 10 9 0
-11 -17 20 10 -9 0
-11 -17 20 -10 9 0
-11 -17 20 -10 -9 0
-11 -17 -20 10 9 0
-11 -17 -20 10 -9 0
-11 -17 -20 -10 9 0
-11 -17 -20 -10 -9 0
